HyperCubes/ilpSamples/samples/prueba4.lp
Minimize
x0 + x1 + x2 + x3 + x4 + x5 + x6 + x7 + x8 + x9 + x10 + x11 + x12 + x13 + x14 + x15
Subject To
x0 + x1 + x2 + x3 + x4 + x5 + x6 + x7 + x8 + x9 + x10 + x11 + x12 + x13 + x14 + x15 >= 1 
x0 + x1 + x2 + x3 + x4 + x5 + x6 + x7 + x8 + x9 + x10 + x11 + x12 + x13 + x14 + x15 >= 1 
x0 + x3 + x4 + x7 + x8 + x11 + x12 + x15 >= 1 
x0 + x1 + x2 + x3 + x4 + x5 + x6 + x7 + x8 + x9 + x10 + x11 + x12 + x13 + x14 + x15 >= 1 
x0 + x2 + x5 + x7 + x8 + x10 + x13 + x15 >= 1 
x0 + x1 + x6 + x7 + x8 + x9 + x14 + x15 >= 1 
x0 + x1 + x2 + x3 + x4 + x5 + x6 + x7 + x8 + x9 + x10 + x11 + x12 + x13 + x14 + x15 >= 1 
x0 + x1 + x2 + x3 + x4 + x5 + x6 + x7 + x8 + x9 + x10 + x11 + x12 + x13 + x14 + x15 >= 1 
x0 + x2 + x4 + x6 + x9 + x11 + x13 + x15 >= 1 
x0 + x1 + x4 + x5 + x10 + x11 + x14 + x15 >= 1 
x0 + x1 + x2 + x3 + x4 + x5 + x6 + x7 + x8 + x9 + x10 + x11 + x12 + x13 + x14 + x15 >= 1 
x0 + x1 + x2 + x3 + x12 + x13 + x14 + x15 >= 1 
x0 + x1 + x2 + x3 + x4 + x5 + x6 + x7 + x8 + x9 + x10 + x11 + x12 + x13 + x14 + x15 >= 1 
x0 + x1 + x2 + x3 + x4 + x5 + x6 + x7 + x8 + x9 + x10 + x11 + x12 + x13 + x14 + x15 >= 1 
x0 + x1 + x2 + x4 + x7 + x8 + x11 + x13 + x14 + x15 >= 1 
x1 + x2 + x5 + x6 + x9 + x10 + x13 + x14 >= 1 
x0 + x1 + x2 + x3 + x4 + x5 + x6 + x7 + x8 + x9 + x10 + x11 + x12 + x13 + x14 + x15 >= 1 
x1 + x3 + x4 + x6 + x9 + x11 + x12 + x14 >= 1 
x0 + x1 + x2 + x3 + x4 + x5 + x6 + x7 + x8 + x9 + x10 + x11 + x12 + x13 + x14 + x15 >= 1 
x0 + x1 + x2 + x3 + x4 + x5 + x6 + x7 + x8 + x9 + x10 + x11 + x12 + x13 + x14 + x15 >= 1 
x0 + x1 + x6 + x7 + x8 + x9 + x14 + x15 >= 1 
x1 + x3 + x5 + x7 + x8 + x10 + x12 + x14 >= 1 
x0 + x1 + x2 + x3 + x4 + x5 + x6 + x7 + x8 + x9 + x10 + x11 + x12 + x13 + x14 + x15 >= 1 
x0 + x1 + x2 + x3 + x4 + x5 + x6 + x7 + x8 + x9 + x10 + x11 + x12 + x13 + x14 + x15 >= 1 
x0 + x1 + x4 + x5 + x10 + x11 + x14 + x15 >= 1 
x0 + x1 + x2 + x3 + x4 + x5 + x6 + x7 + x8 + x9 + x10 + x11 + x12 + x13 + x14 + x15 >= 1 
x0 + x1 + x2 + x3 + x12 + x13 + x14 + x15 >= 1 
x0 + x1 + x3 + x5 + x6 + x9 + x10 + x12 + x14 + x15 >= 1 
x0 + x1 + x2 + x3 + x4 + x5 + x6 + x7 + x8 + x9 + x10 + x11 + x12 + x13 + x14 + x15 >= 1 
x0 + x1 + x2 + x3 + x4 + x5 + x6 + x7 + x8 + x9 + x10 + x11 + x12 + x13 + x14 + x15 >= 1 
x2 + x3 + x4 + x5 + x10 + x11 + x12 + x13 >= 1 
x0 + x1 + x2 + x3 + x4 + x5 + x6 + x7 + x8 + x9 + x10 + x11 + x12 + x13 + x14 + x15 >= 1 
x0 + x1 + x2 + x3 + x4 + x5 + x6 + x7 + x8 + x9 + x10 + x11 + x12 + x13 + x14 + x15 >= 1 
x0 + x2 + x5 + x7 + x8 + x10 + x13 + x15 >= 1 
x2 + x3 + x6 + x7 + x8 + x9 + x12 + x13 >= 1 
x0 + x1 + x2 + x3 + x4 + x5 + x6 + x7 + x8 + x9 + x10 + x11 + x12 + x13 + x14 + x15 >= 1 
x0 + x1 + x2 + x3 + x4 + x5 + x6 + x7 + x8 + x9 + x10 + x11 + x12 + x13 + x14 + x15 >= 1 
x0 + x2 + x4 + x6 + x9 + x11 + x13 + x15 >= 1 
x0 + x1 + x2 + x3 + x4 + x5 + x6 + x7 + x8 + x9 + x10 + x11 + x12 + x13 + x14 + x15 >= 1 
x0 + x2 + x3 + x5 + x6 + x9 + x10 + x12 + x13 + x15 >= 1 
x0 + x1 + x2 + x3 + x12 + x13 + x14 + x15 >= 1 
x0 + x1 + x2 + x3 + x4 + x5 + x6 + x7 + x8 + x9 + x10 + x11 + x12 + x13 + x14 + x15 >= 1 
x0 + x1 + x2 + x3 + x4 + x5 + x6 + x7 + x8 + x9 + x10 + x11 + x12 + x13 + x14 + x15 >= 1 
x2 + x3 + x4 + x5 + x10 + x11 + x12 + x13 >= 1 
x1 + x3 + x4 + x6 + x9 + x11 + x12 + x14 >= 1 
x0 + x1 + x2 + x3 + x4 + x5 + x6 + x7 + x8 + x9 + x10 + x11 + x12 + x13 + x14 + x15 >= 1 
x0 + x1 + x2 + x3 + x4 + x5 + x6 + x7 + x8 + x9 + x10 + x11 + x12 + x13 + x14 + x15 >= 1 
x2 + x3 + x6 + x7 + x8 + x9 + x12 + x13 >= 1 
x1 + x3 + x5 + x7 + x8 + x10 + x12 + x14 >= 1 
x0 + x1 + x2 + x3 + x4 + x5 + x6 + x7 + x8 + x9 + x10 + x11 + x12 + x13 + x14 + x15 >= 1 
x1 + x2 + x3 + x4 + x7 + x8 + x11 + x12 + x13 + x14 >= 1 
x0 + x1 + x2 + x3 + x4 + x5 + x6 + x7 + x8 + x9 + x10 + x11 + x12 + x13 + x14 + x15 >= 1 
x0 + x1 + x2 + x3 + x4 + x5 + x6 + x7 + x8 + x9 + x10 + x11 + x12 + x13 + x14 + x15 >= 1 
x0 + x1 + x2 + x3 + x12 + x13 + x14 + x15 >= 1 
x0 + x1 + x2 + x3 + x4 + x5 + x6 + x7 + x8 + x9 + x10 + x11 + x12 + x13 + x14 + x15 >= 1 
x0 + x1 + x2 + x3 + x4 + x5 + x6 + x7 + x8 + x9 + x10 + x11 + x12 + x13 + x14 + x15 >= 1 
x0 + x3 + x4 + x7 + x8 + x11 + x12 + x15 >= 1 
x4 + x5 + x6 + x7 + x8 + x9 + x10 + x11 >= 1 
x0 + x1 + x2 + x3 + x4 + x5 + x6 + x7 + x8 + x9 + x10 + x11 + x12 + x13 + x14 + x15 >= 1 
x0 + x1 + x2 + x3 + x4 + x5 + x6 + x7 + x8 + x9 + x10 + x11 + x12 + x13 + x14 + x15 >= 1 
x0 + x3 + x4 + x5 + x6 + x9 + x10 + x11 + x12 + x15 >= 1 
x0 + x1 + x2 + x3 + x4 + x5 + x6 + x7 + x8 + x9 + x10 + x11 + x12 + x13 + x14 + x15 >= 1 
x0 + x2 + x4 + x6 + x9 + x11 + x13 + x15 >= 1 
x0 + x1 + x4 + x5 + x10 + x11 + x14 + x15 >= 1 
x0 + x1 + x2 + x3 + x4 + x5 + x6 + x7 + x8 + x9 + x10 + x11 + x12 + x13 + x14 + x15 >= 1 
x1 + x2 + x5 + x6 + x9 + x10 + x13 + x14 >= 1 
x0 + x1 + x2 + x3 + x4 + x5 + x6 + x7 + x8 + x9 + x10 + x11 + x12 + x13 + x14 + x15 >= 1 
x0 + x1 + x2 + x3 + x4 + x5 + x6 + x7 + x8 + x9 + x10 + x11 + x12 + x13 + x14 + x15 >= 1 
x4 + x5 + x6 + x7 + x8 + x9 + x10 + x11 >= 1 
x1 + x2 + x4 + x5 + x7 + x8 + x10 + x11 + x13 + x14 >= 1 
x0 + x1 + x2 + x3 + x4 + x5 + x6 + x7 + x8 + x9 + x10 + x11 + x12 + x13 + x14 + x15 >= 1 
x1 + x3 + x5 + x7 + x8 + x10 + x12 + x14 >= 1 
x0 + x1 + x2 + x3 + x4 + x5 + x6 + x7 + x8 + x9 + x10 + x11 + x12 + x13 + x14 + x15 >= 1 
x0 + x1 + x2 + x3 + x4 + x5 + x6 + x7 + x8 + x9 + x10 + x11 + x12 + x13 + x14 + x15 >= 1 
x0 + x1 + x4 + x5 + x10 + x11 + x14 + x15 >= 1 
x0 + x1 + x2 + x3 + x4 + x5 + x6 + x7 + x8 + x9 + x10 + x11 + x12 + x13 + x14 + x15 >= 1 
x0 + x1 + x2 + x3 + x4 + x5 + x6 + x7 + x8 + x9 + x10 + x11 + x12 + x13 + x14 + x15 >= 1 
x1 + x2 + x4 + x6 + x7 + x8 + x9 + x11 + x13 + x14 >= 1 
x4 + x5 + x6 + x7 + x8 + x9 + x10 + x11 >= 1 
x0 + x1 + x2 + x3 + x4 + x5 + x6 + x7 + x8 + x9 + x10 + x11 + x12 + x13 + x14 + x15 >= 1 
x2 + x3 + x6 + x7 + x8 + x9 + x12 + x13 >= 1 
x0 + x1 + x2 + x3 + x4 + x5 + x6 + x7 + x8 + x9 + x10 + x11 + x12 + x13 + x14 + x15 >= 1 
x0 + x1 + x2 + x3 + x4 + x5 + x6 + x7 + x8 + x9 + x10 + x11 + x12 + x13 + x14 + x15 >= 1 
x0 + x2 + x4 + x6 + x9 + x11 + x13 + x15 >= 1 
x0 + x3 + x5 + x6 + x7 + x8 + x9 + x10 + x12 + x15 >= 1 
x0 + x1 + x2 + x3 + x4 + x5 + x6 + x7 + x8 + x9 + x10 + x11 + x12 + x13 + x14 + x15 >= 1 
x0 + x1 + x2 + x3 + x4 + x5 + x6 + x7 + x8 + x9 + x10 + x11 + x12 + x13 + x14 + x15 >= 1 
x4 + x5 + x6 + x7 + x8 + x9 + x10 + x11 >= 1 
x0 + x1 + x2 + x3 + x4 + x5 + x6 + x7 + x8 + x9 + x10 + x11 + x12 + x13 + x14 + x15 >= 1 
x2 + x3 + x6 + x7 + x8 + x9 + x12 + x13 >= 1 
x1 + x3 + x5 + x7 + x8 + x10 + x12 + x14 >= 1 
x0 + x1 + x2 + x3 + x4 + x5 + x6 + x7 + x8 + x9 + x10 + x11 + x12 + x13 + x14 + x15 >= 1 
x0 + x1 + x2 + x3 + x4 + x5 + x6 + x7 + x8 + x9 + x10 + x11 + x12 + x13 + x14 + x15 >= 1 
x0 + x1 + x2 + x3 + x4 + x5 + x6 + x7 + x8 + x9 + x10 + x11 + x12 + x13 + x14 + x15 >= 1 
x0 + x3 + x4 + x7 + x8 + x11 + x12 + x15 >= 1 
x0 + x1 + x2 + x3 + x4 + x5 + x6 + x7 + x8 + x9 + x10 + x11 + x12 + x13 + x14 + x15 >= 1 
x0 + x2 + x5 + x7 + x8 + x10 + x13 + x15 >= 1 
x0 + x1 + x6 + x7 + x8 + x9 + x14 + x15 >= 1 
x0 + x1 + x2 + x3 + x4 + x5 + x6 + x7 + x8 + x9 + x10 + x11 + x12 + x13 + x14 + x15 >= 1 
x1 + x2 + x5 + x6 + x9 + x10 + x13 + x14 >= 1 
x0 + x1 + x2 + x3 + x4 + x5 + x6 + x7 + x8 + x9 + x10 + x11 + x12 + x13 + x14 + x15 >= 1 
x1 + x3 + x4 + x6 + x9 + x11 + x12 + x14 >= 1 
x0 + x1 + x2 + x3 + x4 + x5 + x6 + x7 + x8 + x9 + x10 + x11 + x12 + x13 + x14 + x15 >= 1 
x0 + x1 + x2 + x3 + x4 + x5 + x6 + x7 + x8 + x9 + x10 + x11 + x12 + x13 + x14 + x15 >= 1 
x0 + x1 + x6 + x7 + x8 + x9 + x14 + x15 >= 1 
x0 + x1 + x2 + x3 + x4 + x5 + x6 + x7 + x8 + x9 + x10 + x11 + x12 + x13 + x14 + x15 >= 1 
x2 + x3 + x4 + x5 + x10 + x11 + x12 + x13 >= 1 
x0 + x1 + x2 + x3 + x4 + x5 + x6 + x7 + x8 + x9 + x10 + x11 + x12 + x13 + x14 + x15 >= 1 
x0 + x1 + x2 + x3 + x4 + x5 + x6 + x7 + x8 + x9 + x10 + x11 + x12 + x13 + x14 + x15 >= 1 
x0 + x2 + x5 + x7 + x8 + x10 + x13 + x15 >= 1 
x0 + x1 + x2 + x3 + x4 + x5 + x6 + x7 + x8 + x9 + x10 + x11 + x12 + x13 + x14 + x15 >= 1 
x2 + x3 + x4 + x5 + x10 + x11 + x12 + x13 >= 1 
x1 + x3 + x4 + x6 + x9 + x11 + x12 + x14 >= 1 
x0 + x1 + x2 + x3 + x4 + x5 + x6 + x7 + x8 + x9 + x10 + x11 + x12 + x13 + x14 + x15 >= 1 
x0 + x1 + x2 + x3 + x4 + x5 + x6 + x7 + x8 + x9 + x10 + x11 + x12 + x13 + x14 + x15 >= 1 
x0 + x1 + x2 + x3 + x4 + x5 + x6 + x7 + x8 + x9 + x10 + x11 + x12 + x13 + x14 + x15 >= 1 
x0 + x3 + x4 + x7 + x8 + x11 + x12 + x15 >= 1 
x1 + x2 + x5 + x6 + x9 + x10 + x13 + x14 >= 1 
x0 + x1 + x2 + x3 + x4 + x5 + x6 + x7 + x8 + x9 + x10 + x11 + x12 + x13 + x14 + x15 >= 1 
x0 + x1 + x2 + x3 + x4 + x5 + x6 + x7 + x8 + x9 + x10 + x11 + x12 + x13 + x14 + x15 >= 1 
Binary
x0 x1 x2 x3 x4 x5 x6 x7 x8 x9 x10 x11 x12 x13 x14 x15
End
