HyperCubes/satSamples/samples/prueba4.wcnf
h 1 2 3 4 5 6 7 8 9 10 11 12 13 14 15 16 0
h 1 2 3 4 5 6 7 8 9 10 11 12 13 14 15 16 0
h 1 4 5 8 9 12 13 16 0
h 1 2 3 4 5 6 7 8 9 10 11 12 13 14 15 16 0
h 1 3 6 8 9 11 14 16 0
h 1 2 7 8 9 10 15 16 0
h 1 2 3 4 5 6 7 8 9 10 11 12 13 14 15 16 0
h 1 2 3 4 5 6 7 8 9 10 11 12 13 14 15 16 0
h 1 3 5 7 10 12 14 16 0
h 1 2 5 6 11 12 15 16 0
h 1 2 3 4 5 6 7 8 9 10 11 12 13 14 15 16 0
h 1 2 3 4 13 14 15 16 0
h 1 2 3 4 5 6 7 8 9 10 11 12 13 14 15 16 0
h 1 2 3 4 5 6 7 8 9 10 11 12 13 14 15 16 0
h 1 2 3 5 8 9 12 14 15 16 0
h 2 3 6 7 10 11 14 15 0
h 1 2 3 4 5 6 7 8 9 10 11 12 13 14 15 16 0
h 2 4 5 7 10 12 13 15 0
h 1 2 3 4 5 6 7 8 9 10 11 12 13 14 15 16 0
h 1 2 3 4 5 6 7 8 9 10 11 12 13 14 15 16 0
h 1 2 7 8 9 10 15 16 0
h 2 4 6 8 9 11 13 15 0
h 1 2 3 4 5 6 7 8 9 10 11 12 13 14 15 16 0
h 1 2 3 4 5 6 7 8 9 10 11 12 13 14 15 16 0
h 1 2 5 6 11 12 15 16 0
h 1 2 3 4 5 6 7 8 9 10 11 12 13 14 15 16 0
h 1 2 3 4 13 14 15 16 0
h 1 2 4 6 7 10 11 13 15 16 0
h 1 2 3 4 5 6 7 8 9 10 11 12 13 14 15 16 0
h 1 2 3 4 5 6 7 8 9 10 11 12 13 14 15 16 0
h 3 4 5 6 11 12 13 14 0
h 1 2 3 4 5 6 7 8 9 10 11 12 13 14 15 16 0
h 1 2 3 4 5 6 7 8 9 10 11 12 13 14 15 16 0
h 1 3 6 8 9 11 14 16 0
h 3 4 7 8 9 10 13 14 0
h 1 2 3 4 5 6 7 8 9 10 11 12 13 14 15 16 0
h 1 2 3 4 5 6 7 8 9 10 11 12 13 14 15 16 0
h 1 3 5 7 10 12 14 16 0
h 1 2 3 4 5 6 7 8 9 10 11 12 13 14 15 16 0
h 1 3 4 6 7 10 11 13 14 16 0
h 1 2 3 4 13 14 15 16 0
h 1 2 3 4 5 6 7 8 9 10 11 12 13 14 15 16 0
h 1 2 3 4 5 6 7 8 9 10 11 12 13 14 15 16 0
h 3 4 5 6 11 12 13 14 0
h 2 4 5 7 10 12 13 15 0
h 1 2 3 4 5 6 7 8 9 10 11 12 13 14 15 16 0
h 1 2 3 4 5 6 7 8 9 10 11 12 13 14 15 16 0
h 3 4 7 8 9 10 13 14 0
h 2 4 6 8 9 11 13 15 0
h 1 2 3 4 5 6 7 8 9 10 11 12 13 14 15 16 0
h 2 3 4 5 8 9 12 13 14 15 0
h 1 2 3 4 5 6 7 8 9 10 11 12 13 14 15 16 0
h 1 2 3 4 5 6 7 8 9 10 11 12 13 14 15 16 0
h 1 2 3 4 13 14 15 16 0
h 1 2 3 4 5 6 7 8 9 10 11 12 13 14 15 16 0
h 1 2 3 4 5 6 7 8 9 10 11 12 13 14 15 16 0
h 1 4 5 8 9 12 13 16 0
h 5 6 7 8 9 10 11 12 0
h 1 2 3 4 5 6 7 8 9 10 11 12 13 14 15 16 0
h 1 2 3 4 5 6 7 8 9 10 11 12 13 14 15 16 0
h 1 4 5 6 7 10 11 12 13 16 0
h 1 2 3 4 5 6 7 8 9 10 11 12 13 14 15 16 0
h 1 3 5 7 10 12 14 16 0
h 1 2 5 6 11 12 15 16 0
h 1 2 3 4 5 6 7 8 9 10 11 12 13 14 15 16 0
h 2 3 6 7 10 11 14 15 0
h 1 2 3 4 5 6 7 8 9 10 11 12 13 14 15 16 0
h 1 2 3 4 5 6 7 8 9 10 11 12 13 14 15 16 0
h 5 6 7 8 9 10 11 12 0
h 2 3 5 6 8 9 11 12 14 15 0
h 1 2 3 4 5 6 7 8 9 10 11 12 13 14 15 16 0
h 2 4 6 8 9 11 13 15 0
h 1 2 3 4 5 6 7 8 9 10 11 12 13 14 15 16 0
h 1 2 3 4 5 6 7 8 9 10 11 12 13 14 15 16 0
h 1 2 5 6 11 12 15 16 0
h 1 2 3 4 5 6 7 8 9 10 11 12 13 14 15 16 0
h 1 2 3 4 5 6 7 8 9 10 11 12 13 14 15 16 0
h 2 3 5 7 8 9 10 12 14 15 0
h 5 6 7 8 9 10 11 12 0
h 1 2 3 4 5 6 7 8 9 10 11 12 13 14 15 16 0
h 3 4 7 8 9 10 13 14 0
h 1 2 3 4 5 6 7 8 9 10 11 12 13 14 15 16 0
h 1 2 3 4 5 6 7 8 9 10 11 12 13 14 15 16 0
h 1 3 5 7 10 12 14 16 0
h 1 4 6 7 8 9 10 11 13 16 0
h 1 2 3 4 5 6 7 8 9 10 11 12 13 14 15 16 0
h 1 2 3 4 5 6 7 8 9 10 11 12 13 14 15 16 0
h 5 6 7 8 9 10 11 12 0
h 1 2 3 4 5 6 7 8 9 10 11 12 13 14 15 16 0
h 3 4 7 8 9 10 13 14 0
h 2 4 6 8 9 11 13 15 0
h 1 2 3 4 5 6 7 8 9 10 11 12 13 14 15 16 0
h 1 2 3 4 5 6 7 8 9 10 11 12 13 14 15 16 0
h 1 2 3 4 5 6 7 8 9 10 11 12 13 14 15 16 0
h 1 4 5 8 9 12 13 16 0
h 1 2 3 4 5 6 7 8 9 10 11 12 13 14 15 16 0
h 1 3 6 8 9 11 14 16 0
h 1 2 7 8 9 10 15 16 0
h 1 2 3 4 5 6 7 8 9 10 11 12 13 14 15 16 0
h 2 3 6 7 10 11 14 15 0
h 1 2 3 4 5 6 7 8 9 10 11 12 13 14 15 16 0
h 2 4 5 7 10 12 13 15 0
h 1 2 3 4 5 6 7 8 9 10 11 12 13 14 15 16 0
h 1 2 3 4 5 6 7 8 9 10 11 12 13 14 15 16 0
h 1 2 7 8 9 10 15 16 0
h 1 2 3 4 5 6 7 8 9 10 11 12 13 14 15 16 0
h 3 4 5 6 11 12 13 14 0
h 1 2 3 4 5 6 7 8 9 10 11 12 13 14 15 16 0
h 1 2 3 4 5 6 7 8 9 10 11 12 13 14 15 16 0
h 1 3 6 8 9 11 14 16 0
h 1 2 3 4 5 6 7 8 9 10 11 12 13 14 15 16 0
h 3 4 5 6 11 12 13 14 0
h 2 4 5 7 10 12 13 15 0
h 1 2 3 4 5 6 7 8 9 10 11 12 13 14 15 16 0
h 1 2 3 4 5 6 7 8 9 10 11 12 13 14 15 16 0
h 1 2 3 4 5 6 7 8 9 10 11 12 13 14 15 16 0
h 1 4 5 8 9 12 13 16 0
h 2 3 6 7 10 11 14 15 0
h 1 2 3 4 5 6 7 8 9 10 11 12 13 14 15 16 0
h 1 2 3 4 5 6 7 8 9 10 11 12 13 14 15 16 0
1 -1 0
1 -2 0
1 -3 0
1 -4 0
1 -5 0
1 -6 0
1 -7 0
1 -8 0
1 -9 0
1 -10 0
1 -11 0
1 -12 0
1 -13 0
1 -14 0
1 -15 0
1 -16 0
